experiment/data/lkh-res/Vrp-Set-M-n200/Vrp-Set-M-n200-lkh/1.lkh1.vrp
NAME : 1
COMMENT : CVRP Instance
TYPE : CVRP
DIMENSION : 200
EDGE_WEIGHT_TYPE : EUC_2D
CAPACITY : 200
NODE_COORD_SECTION
1	3500	3500
2	4100	4900
3	3500	1700
4	5500	4500
5	5500	2000
6	1500	3000
7	2500	3000
8	2000	5000
9	1000	4300
10	5500	6000
11	3000	6000
12	2000	6500
13	5000	3500
14	3000	2500
15	1500	1000
16	3000	500
17	1000	2000
18	500	3000
19	2000	4000
20	1500	6000
21	4500	6500
22	4500	2000
23	4500	1000
24	5500	500
25	6500	3500
26	6500	2000
27	4500	3000
28	3500	4000
29	4100	3700
30	6400	4200
31	4000	6000
32	3100	5200
33	3500	6900
34	5300	5200
35	6500	5500
36	6300	6500
37	200	6000
38	2000	2000
39	500	500
40	6000	1200
41	4000	2500
42	4200	700
43	2400	1200
44	2300	300
45	1100	1400
46	600	3800
47	200	4800
48	800	5600
49	1300	5200
50	600	6800
51	4700	4700
52	4900	5800
53	2700	4300
54	3700	3100
55	5700	2900
56	6300	2300
57	5300	1200
58	3200	1200
59	3600	2600
60	2100	2400
61	1700	3400
62	1200	2400
63	2400	5800
64	2700	6900
65	1500	7700
66	6200	7700
67	4900	7300
68	6700	500
69	5600	3900
70	3700	4700
71	3700	5600
72	5700	6800
73	4700	1600
74	4400	1700
75	4600	1300
76	4900	1100
77	4900	4200
78	5300	4300
79	6100	5200
80	5700	4800
81	5600	3700
82	5500	5400
83	1500	4700
84	1400	3700
85	1100	3100
86	1600	2200
87	400	1800
88	2800	1800
89	2600	5200
90	2600	3500
91	3100	6700
92	1500	1900
93	2200	2200
94	1800	2400
95	2600	2700
96	2500	2400
97	2200	2700
98	2500	2100
99	1900	2100
100	2000	2600
101	1800	1800
102	3700	5200
103	4900	4900
104	5200	6400
105	2000	2600
106	4000	3000
107	2100	4700
108	1700	6300
109	3100	6200
110	5200	3300
111	5100	2100
112	4200	4100
113	3100	3200
114	500	2500
115	1200	4200
116	3600	1600
117	5200	4100
118	2700	2300
119	1700	3300
120	1300	1300
121	5700	5800
122	6200	4200
123	4200	5700
124	1600	5700
125	800	5200
126	700	3800
127	2700	6800
128	3000	4800
129	4300	6700
130	5800	4800
131	5800	2700
132	3700	6900
133	3800	4600
134	4600	1000
135	6100	3300
136	6200	6300
137	6300	6900
138	3200	2200
139	4500	3500
140	5900	1500
141	500	600
142	1000	1700
143	2100	1000
144	500	6400
145	3000	1500
146	3900	1000
147	3200	3900
148	2500	3200
149	2500	5500
150	4800	2800
151	5600	3700
152	2200	2200
153	3600	2600
154	2100	4500
155	4500	3500
156	5500	2000
157	3300	3400
158	5000	5000
159	5500	4500
160	2600	5900
161	4000	6600
162	5500	6500
163	3500	5100
164	6200	3500
165	6200	5700
166	6200	2400
167	2100	3600
168	3300	4400
169	900	5600
170	6200	4800
171	6600	1400
172	4400	1300
173	2600	1300
174	1100	2800
175	700	4300
176	1700	6400
177	4100	4600
178	5500	3400
179	3500	1600
180	5200	2600
181	4300	2600
182	3100	7600
183	2200	5300
184	2600	2900
185	5000	4000
186	5500	5000
187	5400	1000
188	6000	1500
189	4700	6600
190	3000	6000
191	3000	5000
192	1200	1700
193	1500	1400
194	1600	1900
195	2100	4800
196	5000	3000
197	5100	4200
198	5000	1500
199	4800	2100
200	1200	3800
DEMAND_SECTION
1	0
2	10
3	7
4	13
5	19
6	26
7	3
8	5
9	9
10	16
11	16
12	12
13	19
14	23
15	20
16	8
17	19
18	2
19	12
20	17
21	9
22	11
23	18
24	29
25	3
26	6
27	17
28	16
29	16
30	9
31	21
32	27
33	23
34	11
35	14
36	8
37	5
38	8
39	16
40	31
41	9
42	5
43	5
44	7
45	18
46	16
47	1
48	27
49	36
50	30
51	13
52	10
53	9
54	14
55	18
56	2
57	6
58	7
59	18
60	28
61	3
62	13
63	19
64	10
65	9
66	20
67	25
68	25
69	36
70	6
71	5
72	15
73	25
74	9
75	8
76	18
77	13
78	14
79	3
80	23
81	6
82	26
83	16
84	11
85	7
86	41
87	35
88	26
89	9
90	15
91	3
92	1
93	2
94	22
95	27
96	20
97	11
98	12
99	10
100	9
101	17
102	7
103	30
104	16
105	9
106	21
107	15
108	19
109	23
110	11
111	5
112	19
113	29
114	23
115	21
116	10
117	15
118	3
119	41
120	9
121	28
122	8
123	8
124	16
125	10
126	28
127	7
128	15
129	14
130	6
131	19
132	11
133	12
134	23
135	26
136	17
137	6
138	9
139	15
140	14
141	7
142	27
143	13
144	11
145	16
146	10
147	5
148	25
149	17
150	18
151	10
152	18
153	26
154	11
155	30
156	21
157	19
158	15
159	16
160	29
161	26
162	37
163	16
164	12
165	31
166	8
167	19
168	20
169	13
170	15
171	22
172	28
173	12
174	6
175	27
176	14
177	18
178	17
179	29
180	13
181	22
182	25
183	28
184	27
185	19
186	10
187	12
188	14
189	24
190	16
191	33
192	15
193	11
194	18
195	17
196	21
197	27
198	19
199	20
200	5
DEPOT_SECTION
1
-1
EOF
